interface ihello
{
  in void hello ();
  behavior
  {
    on hello:;
  }
}

component blocking_multiple_provides
{
  provides ihello left;
  provides ihello right;
  behavior
  {
    blocking on left.hello (): left.reply ();
  }
}
